(set-logic QF_S)
(declare-fun _var_0xINPUT_136077_() String)
(declare-fun __woorpje_diseq_pref0_() String)
(declare-fun __woorpje_diseq_suf_l0_() String)
(declare-fun __woorpje_diseq_suf_r0_() String)
(assert (=(str.++ _var_0xINPUT_136077_  "")(str.++ __woorpje_diseq_pref0_  "S" __woorpje_diseq_suf_l0_  "")) )
(assert (=(str.++  "22ZkMntSfA" "")(str.++ __woorpje_diseq_pref0_  "A" __woorpje_diseq_suf_r0_  "")) )
(check-sat)
